8 28 4
0 1 1.06
0 2 0.29
0 3 15.52
0 4 0.18
0 5 15.52
0 6 0.51
0 7 1.00
1 2 1.04
1 3 15.52
1 4 15.52
1 5 15.52
1 6 15.52
1 7 15.52
2 3 0.45
2 4 0.72
2 5 15.52
2 6 0.49
2 7 15.52
3 4 1.94
3 5 15.52
3 6 15.52
3 7 15.52
4 5 0.56
4 6 0.94
4 7 15.52
5 6 1.93
5 7 15.52
6 7 0.31
0
2
4
6
